
Gurobi 6.5.2 (win64) logging started 07/22/16 21:24:53


Gurobi 6.5.2 (win64) logging started 07/22/16 21:24:53

Optimize a model with 2385 rows, 722 columns and 6284 nonzeros
Coefficient statistics:
  Matrix range    [6e-08, 1e+03]
  Objective range [1e+00, 1e+00]
  Bounds range    [1e+00, 1e+00]
  RHS range       [6e-06, 2e+03]
Presolve removed 2147 rows and 475 columns
Presolve time: 0.00s
Presolved: 238 rows, 247 columns, 1047 nonzeros
Variable types: 247 continuous, 0 integer (0 binary)

Root relaxation: objective 1.855751e+02, 284 iterations, 0.00 seconds

    Nodes    |    Current Node    |     Objective Bounds      |     Work
 Expl Unexpl |  Obj  Depth IntInf | Incumbent    BestBd   Gap | It/Node Time

*    0     0               0     185.5750666  185.57507  0.00%     -    0s

Explored 0 nodes (284 simplex iterations) in 0.02 seconds
Thread count was 8 (of 8 available processors)

Optimal solution found (tolerance 1.00e-04)
Best objective 1.855750666045e+02, best bound 1.855750666045e+02, gap 0.0%

Wrote requested result file 'H1\instance13\\Results13EC_Sol4.lp'

